0 0 0 0
0 1 2 0
0 2 0 0
0 3 2 0
0 4 2 6
0 5 1 10
0 6 2 3
0 7 2 6
0 8 2 6
0 9 0 14
0 10 0 14
0 11 2 18
0 12 1 12
0 13 1 18
0 14 2 3
0 15 1 17
0 16 2 18
0 17 1 18
0 18 2 24
0 19 1 14
0 20 2 24
0 21 2 24
0 22 2 24
0 23 2 12
0 24 2 19
0 25 1 29
0 26 0 32
0 27 2 28
0 28 1 34
0 29 2 27
0 30 0 37
0 31 0 38
